3 5
88 146 158 
0 16 6 35 25 53 43 21 24 100 37 35 28 3
1 29 19 105 95 82 72 89 49 59 80 6 89 1
2 13 3 47 37 90 80 99 77 31 8 95 7 2
3 77 67 86 76 102 92 2 97 43 95 31 42 1
4 91 81 69 59 40 30 79 21 73 71 43 52 2
